c colouring generated by benchmark framework
p edge 25 160
v 1 1
v 2 3
v 3 0
v 4 4
v 5 2
v 6 0
v 7 4
v 8 2
v 9 1
v 10 3
v 11 2
v 12 1
v 13 3
v 14 0
v 15 4
v 16 3
v 17 0
v 18 4
v 19 2
v 20 1
v 21 4
v 22 2
v 23 1
v 24 3
v 25 0
